(set-logic QF_UF)
(declare-fun A0 () Bool)
(declare-fun A1 () Bool)
(declare-fun A2 () Bool)
(declare-fun A3 () Bool)
(declare-fun A4 () Bool)
(declare-fun A5 () Bool)
(declare-fun A6 () Bool)
(declare-fun A7 () Bool)
(declare-fun A8 () Bool)
(declare-fun A9 () Bool)
(declare-fun A10 () Bool)
(declare-fun A11 () Bool)
(declare-fun A12 () Bool)
(declare-fun A13 () Bool)
(declare-fun A14 () Bool)
(declare-fun A15 () Bool)
(declare-fun A16 () Bool)
(declare-fun A17 () Bool)
(declare-fun A18 () Bool)
(declare-fun A19 () Bool)
(declare-fun A20 () Bool)
(declare-fun A21 () Bool)
(declare-fun A22 () Bool)
(declare-fun A23 () Bool)
(declare-fun A24 () Bool)
(assert (let ((.def_0 (not A8))) (let ((.def_1 (and A10 .def_0))) (let ((.def_2 (not A0))) (let ((.def_3 (= A15 .def_2))) (let ((.def_4 (not .def_3))) (let ((.def_5 (= .def_4 .def_1))) (let ((.def_6 (not .def_5))) (let ((.def_7 (= A8 A4))) (let ((.def_8 (not A9))) (let ((.def_9 (or .def_8 A21))) (let ((.def_10 (or .def_9 .def_7))) (let ((.def_11 (or .def_10 .def_6))) (let ((.def_12 (not A19))) (let ((.def_13 (or .def_12 A22))) (let ((.def_14 (or A22 A20))) (let ((.def_15 (or .def_14 .def_13))) (let ((.def_16 (not A17))) (let ((.def_17 (not A2))) (let ((.def_18 (or .def_17 .def_16))) (let ((.def_19 (not .def_18))) (let ((.def_20 (and A4 A16))) (let ((.def_21 (or .def_20 .def_19))) (let ((.def_22 (= .def_21 .def_15))) (let ((.def_23 (or .def_22 .def_11))) (let ((.def_24 (not A7))) (let ((.def_25 (or A9 .def_24))) (let ((.def_26 (not A3))) (let ((.def_27 (and .def_26 .def_12))) (let ((.def_28 (and .def_27 .def_25))) (let ((.def_29 (= A9 A2))) (let ((.def_30 (not A12))) (let ((.def_31 (or A6 .def_30))) (let ((.def_32 (or .def_31 .def_29))) (let ((.def_33 (not .def_32))) (let ((.def_34 (or .def_33 .def_28))) (let ((.def_35 (or A17 A2))) (let ((.def_36 (not .def_35))) (let ((.def_37 (and .def_26 A3))) (let ((.def_38 (not .def_37))) (let ((.def_39 (and .def_38 .def_36))) (let ((.def_40 (not A24))) (let ((.def_41 (and .def_40 A21))) (let ((.def_42 (and A22 A0))) (let ((.def_43 (not .def_42))) (let ((.def_44 (and .def_43 .def_41))) (let ((.def_45 (or .def_44 .def_39))) (let ((.def_46 (and .def_45 .def_34))) (let ((.def_47 (not .def_46))) (let ((.def_48 (and .def_47 .def_23))) (let ((.def_49 (not .def_48))) (let ((.def_50 (= A3 A24))) (let ((.def_51 (not .def_50))) (let ((.def_52 (or A8 A24))) (let ((.def_53 (not .def_52))) (let ((.def_54 (and .def_53 .def_51))) (let ((.def_55 (not .def_54))) (let ((.def_56 (not A10))) (let ((.def_57 (and A0 .def_56))) (let ((.def_58 (not .def_57))) (let ((.def_59 (or .def_26 A20))) (let ((.def_60 (not .def_59))) (let ((.def_61 (and .def_60 .def_58))) (let ((.def_62 (not .def_61))) (let ((.def_63 (or .def_62 .def_55))) (let ((.def_64 (= A3 A17))) (let ((.def_65 (not .def_64))) (let ((.def_66 (or A5 A16))) (let ((.def_67 (or .def_66 .def_65))) (let ((.def_68 (and A5 A7))) (let ((.def_69 (not .def_68))) (let ((.def_70 (or .def_40 A22))) (let ((.def_71 (not .def_70))) (let ((.def_72 (and .def_71 .def_69))) (let ((.def_73 (or .def_72 .def_67))) (let ((.def_74 (not .def_73))) (let ((.def_75 (or .def_74 .def_63))) (let ((.def_76 (not A14))) (let ((.def_77 (or .def_76 .def_8))) (let ((.def_78 (not A18))) (let ((.def_79 (= .def_8 .def_78))) (let ((.def_80 (not .def_79))) (let ((.def_81 (or .def_80 .def_77))) (let ((.def_82 (not .def_81))) (let ((.def_83 (not A21))) (let ((.def_84 (= A8 .def_83))) (let ((.def_85 (not A16))) (let ((.def_86 (and .def_85 .def_0))) (let ((.def_87 (or .def_86 .def_84))) (let ((.def_88 (and .def_87 .def_82))) (let ((.def_89 (not .def_88))) (let ((.def_90 (or A4 .def_16))) (let ((.def_91 (not .def_90))) (let ((.def_92 (not A1))) (let ((.def_93 (or .def_92 .def_76))) (let ((.def_94 (not .def_93))) (let ((.def_95 (= .def_94 .def_91))) (let ((.def_96 (not A15))) (let ((.def_97 (and .def_96 A9))) (let ((.def_98 (not .def_97))) (let ((.def_99 (and .def_8 A8))) (let ((.def_100 (not .def_99))) (let ((.def_101 (= .def_100 .def_98))) (let ((.def_102 (not .def_101))) (let ((.def_103 (and .def_102 .def_95))) (let ((.def_104 (or .def_103 .def_89))) (let ((.def_105 (not .def_104))) (let ((.def_106 (and .def_105 .def_75))) (let ((.def_107 (not .def_106))) (let ((.def_108 (or .def_107 .def_49))) (let ((.def_109 (not A6))) (let ((.def_110 (or A14 .def_109))) (let ((.def_111 (not .def_110))) (let ((.def_112 (or A21 A23))) (let ((.def_113 (not .def_112))) (let ((.def_114 (or .def_113 .def_111))) (let ((.def_115 (or .def_76 A15))) (let ((.def_116 (not .def_115))) (let ((.def_117 (and .def_56 A15))) (let ((.def_118 (and .def_117 .def_116))) (let ((.def_119 (and .def_118 .def_114))) (let ((.def_120 (and .def_24 A1))) (let ((.def_121 (not .def_120))) (let ((.def_122 (or .def_92 A19))) (let ((.def_123 (and .def_122 .def_121))) (let ((.def_124 (not .def_123))) (let ((.def_125 (and .def_85 A20))) (let ((.def_126 (not .def_125))) (let ((.def_127 (not A13))) (let ((.def_128 (or .def_92 .def_127))) (let ((.def_129 (or .def_128 .def_126))) (let ((.def_130 (or .def_129 .def_124))) (let ((.def_131 (not .def_130))) (let ((.def_132 (or .def_131 .def_119))) (let ((.def_133 (not .def_132))) (let ((.def_134 (or .def_16 A6))) (let ((.def_135 (not A5))) (let ((.def_136 (or .def_135 A14))) (let ((.def_137 (or .def_136 .def_134))) (let ((.def_138 (not .def_137))) (let ((.def_139 (= .def_26 A8))) (let ((.def_140 (and A5 .def_12))) (let ((.def_141 (or .def_140 .def_139))) (let ((.def_142 (not .def_141))) (let ((.def_143 (and .def_142 .def_138))) (let ((.def_144 (not .def_143))) (let ((.def_145 (not A20))) (let ((.def_146 (and .def_145 A7))) (let ((.def_147 (or .def_12 .def_96))) (let ((.def_148 (not .def_147))) (let ((.def_149 (or .def_148 .def_146))) (let ((.def_150 (or .def_8 A14))) (let ((.def_151 (not .def_150))) (let ((.def_152 (and A11 .def_92))) (let ((.def_153 (not .def_152))) (let ((.def_154 (and .def_153 .def_151))) (let ((.def_155 (not .def_154))) (let ((.def_156 (= .def_155 .def_149))) (let ((.def_157 (not .def_156))) (let ((.def_158 (or .def_157 .def_144))) (let ((.def_159 (or .def_158 .def_133))) (let ((.def_160 (not A23))) (let ((.def_161 (and .def_96 .def_160))) (let ((.def_162 (not .def_161))) (let ((.def_163 (and A4 A21))) (let ((.def_164 (or .def_163 .def_162))) (let ((.def_165 (and .def_24 .def_78))) (let ((.def_166 (or A24 A2))) (let ((.def_167 (not .def_166))) (let ((.def_168 (or .def_167 .def_165))) (let ((.def_169 (and .def_168 .def_164))) (let ((.def_170 (not .def_169))) (let ((.def_171 (and A24 A8))) (let ((.def_172 (not .def_171))) (let ((.def_173 (or .def_160 .def_127))) (let ((.def_174 (not .def_173))) (let ((.def_175 (or .def_174 .def_172))) (let ((.def_176 (not .def_175))) (let ((.def_177 (or .def_12 A3))) (let ((.def_178 (not .def_177))) (let ((.def_179 (= A23 A10))) (let ((.def_180 (= .def_179 .def_178))) (let ((.def_181 (not .def_180))) (let ((.def_182 (= .def_181 .def_176))) (let ((.def_183 (and .def_182 .def_170))) (let ((.def_184 (not .def_183))) (let ((.def_185 (and .def_76 .def_2))) (let ((.def_186 (or A0 .def_8))) (let ((.def_187 (and .def_186 .def_185))) (let ((.def_188 (and A13 A22))) (let ((.def_189 (or .def_85 A24))) (let ((.def_190 (not .def_189))) (let ((.def_191 (and .def_190 .def_188))) (let ((.def_192 (not .def_191))) (let ((.def_193 (and .def_192 .def_187))) (let ((.def_194 (not .def_193))) (let ((.def_195 (or .def_85 .def_2))) (let ((.def_196 (and A21 .def_92))) (let ((.def_197 (or .def_196 .def_195))) (let ((.def_198 (not .def_197))) (let ((.def_199 (or A19 A3))) (let ((.def_200 (or .def_78 A8))) (let ((.def_201 (and .def_200 .def_199))) (let ((.def_202 (= .def_201 .def_198))) (let ((.def_203 (not .def_202))) (let ((.def_204 (and .def_203 .def_194))) (let ((.def_205 (not .def_204))) (let ((.def_206 (= .def_205 .def_184))) (let ((.def_207 (= .def_206 .def_159))) (let ((.def_208 (and .def_207 .def_108))) (let ((.def_209 (not .def_208))) (let ((.def_210 (or .def_30 .def_8))) (let ((.def_211 (and .def_145 .def_109))) (let ((.def_212 (or .def_211 .def_210))) (let ((.def_213 (not A22))) (let ((.def_214 (and .def_30 .def_213))) (let ((.def_215 (or .def_160 A24))) (let ((.def_216 (or .def_215 .def_214))) (let ((.def_217 (not .def_216))) (let ((.def_218 (and .def_217 .def_212))) (let ((.def_219 (and .def_40 .def_145))) (let ((.def_220 (not .def_219))) (let ((.def_221 (and .def_145 .def_145))) (let ((.def_222 (not .def_221))) (let ((.def_223 (or .def_222 .def_220))) (let ((.def_224 (not .def_223))) (let ((.def_225 (and A18 A11))) (let ((.def_226 (not .def_225))) (let ((.def_227 (and .def_83 .def_24))) (let ((.def_228 (not .def_227))) (let ((.def_229 (and .def_228 .def_226))) (let ((.def_230 (and .def_229 .def_224))) (let ((.def_231 (or .def_230 .def_218))) (let ((.def_232 (and A14 .def_56))) (let ((.def_233 (not .def_232))) (let ((.def_234 (= A5 .def_78))) (let ((.def_235 (and .def_234 .def_233))) (let ((.def_236 (not .def_235))) (let ((.def_237 (or A18 A0))) (let ((.def_238 (not .def_237))) (let ((.def_239 (or A17 A5))) (let ((.def_240 (not .def_239))) (let ((.def_241 (and .def_240 .def_238))) (let ((.def_242 (and .def_241 .def_236))) (let ((.def_243 (= .def_30 A22))) (let ((.def_244 (not .def_243))) (let ((.def_245 (and A6 .def_2))) (let ((.def_246 (and .def_245 .def_244))) (let ((.def_247 (or A14 A20))) (let ((.def_248 (and .def_160 A20))) (let ((.def_249 (and .def_248 .def_247))) (let ((.def_250 (= .def_249 .def_246))) (let ((.def_251 (not .def_250))) (let ((.def_252 (or .def_251 .def_242))) (let ((.def_253 (and .def_252 .def_231))) (let ((.def_254 (or A24 .def_56))) (let ((.def_255 (not .def_254))) (let ((.def_256 (= .def_85 .def_109))) (let ((.def_257 (not .def_256))) (let ((.def_258 (and .def_257 .def_255))) (let ((.def_259 (or A23 .def_56))) (let ((.def_260 (not .def_259))) (let ((.def_261 (or A8 A2))) (let ((.def_262 (not .def_261))) (let ((.def_263 (and .def_262 .def_260))) (let ((.def_264 (and .def_263 .def_258))) (let ((.def_265 (not .def_264))) (let ((.def_266 (and .def_83 A13))) (let ((.def_267 (not .def_266))) (let ((.def_268 (and A8 A4))) (let ((.def_269 (and .def_268 .def_267))) (let ((.def_270 (not .def_269))) (let ((.def_271 (not A4))) (let ((.def_272 (and .def_271 .def_76))) (let ((.def_273 (or .def_8 A4))) (let ((.def_274 (and .def_273 .def_272))) (let ((.def_275 (not .def_274))) (let ((.def_276 (= .def_275 .def_270))) (let ((.def_277 (and .def_276 .def_265))) (let ((.def_278 (and .def_2 A17))) (let ((.def_279 (not .def_278))) (let ((.def_280 (and .def_160 .def_26))) (let ((.def_281 (not .def_280))) (let ((.def_282 (or .def_281 .def_279))) (let ((.def_283 (not .def_282))) (let ((.def_284 (= A23 A2))) (let ((.def_285 (and A0 A15))) (let ((.def_286 (and .def_285 .def_284))) (let ((.def_287 (not .def_286))) (let ((.def_288 (or .def_287 .def_283))) (let ((.def_289 (or .def_17 A4))) (let ((.def_290 (not .def_289))) (let ((.def_291 (= .def_30 A8))) (let ((.def_292 (and .def_291 .def_290))) (let ((.def_293 (or .def_17 .def_76))) (let ((.def_294 (not .def_293))) (let ((.def_295 (= .def_76 .def_40))) (let ((.def_296 (or .def_295 .def_294))) (let ((.def_297 (or .def_296 .def_292))) (let ((.def_298 (not .def_297))) (let ((.def_299 (and .def_298 .def_288))) (let ((.def_300 (and .def_299 .def_277))) (let ((.def_301 (not .def_300))) (let ((.def_302 (= .def_301 .def_253))) (let ((.def_303 (not .def_302))) (let ((.def_304 (or A2 .def_135))) (let ((.def_305 (not .def_304))) (let ((.def_306 (or .def_160 .def_213))) (let ((.def_307 (not .def_306))) (let ((.def_308 (and .def_307 .def_305))) (let ((.def_309 (and .def_2 A13))) (let ((.def_310 (or A24 A1))) (let ((.def_311 (or .def_310 .def_309))) (let ((.def_312 (not .def_311))) (let ((.def_313 (= .def_312 .def_308))) (let ((.def_314 (and .def_2 A2))) (let ((.def_315 (and .def_271 .def_24))) (let ((.def_316 (not .def_315))) (let ((.def_317 (and .def_316 .def_314))) (let ((.def_318 (= A18 A17))) (let ((.def_319 (not .def_318))) (let ((.def_320 (or .def_2 A24))) (let ((.def_321 (or .def_320 .def_319))) (let ((.def_322 (not .def_321))) (let ((.def_323 (and .def_322 .def_317))) (let ((.def_324 (not .def_323))) (let ((.def_325 (= .def_324 .def_313))) (let ((.def_326 (not .def_325))) (let ((.def_327 (or .def_92 A21))) (let ((.def_328 (not .def_327))) (let ((.def_329 (and .def_160 .def_96))) (let ((.def_330 (not .def_329))) (let ((.def_331 (or .def_330 .def_328))) (let ((.def_332 (not .def_331))) (let ((.def_333 (or A1 .def_24))) (let ((.def_334 (not .def_333))) (let ((.def_335 (= A14 A13))) (let ((.def_336 (or .def_335 .def_334))) (let ((.def_337 (or .def_336 .def_332))) (let ((.def_338 (and .def_2 A14))) (let ((.def_339 (not .def_338))) (let ((.def_340 (or A12 .def_109))) (let ((.def_341 (= .def_340 .def_339))) (let ((.def_342 (or .def_40 .def_76))) (let ((.def_343 (not .def_342))) (let ((.def_344 (and A11 A22))) (let ((.def_345 (or .def_344 .def_343))) (let ((.def_346 (or .def_345 .def_341))) (let ((.def_347 (and .def_346 .def_337))) (let ((.def_348 (not .def_347))) (let ((.def_349 (or .def_348 .def_326))) (let ((.def_350 (not .def_349))) (let ((.def_351 (or .def_92 A17))) (let ((.def_352 (not .def_351))) (let ((.def_353 (and .def_135 A19))) (let ((.def_354 (and .def_353 .def_352))) (let ((.def_355 (not .def_354))) (let ((.def_356 (and .def_26 .def_135))) (let ((.def_357 (not .def_356))) (let ((.def_358 (or A12 A1))) (let ((.def_359 (or .def_358 .def_357))) (let ((.def_360 (or .def_359 .def_355))) (let ((.def_361 (not .def_360))) (let ((.def_362 (and .def_145 .def_30))) (let ((.def_363 (and A18 A16))) (let ((.def_364 (not .def_363))) (let ((.def_365 (or .def_364 .def_362))) (let ((.def_366 (or .def_85 .def_271))) (let ((.def_367 (and A21 .def_0))) (let ((.def_368 (not .def_367))) (let ((.def_369 (or .def_368 .def_366))) (let ((.def_370 (or .def_369 .def_365))) (let ((.def_371 (and .def_370 .def_361))) (let ((.def_372 (or .def_213 A10))) (let ((.def_373 (not .def_372))) (let ((.def_374 (not A11))) (let ((.def_375 (or .def_374 .def_76))) (let ((.def_376 (and .def_375 .def_373))) (let ((.def_377 (not .def_376))) (let ((.def_378 (or A17 .def_16))) (let ((.def_379 (not .def_378))) (let ((.def_380 (and A0 A8))) (let ((.def_381 (or .def_380 .def_379))) (let ((.def_382 (or .def_381 .def_377))) (let ((.def_383 (and A6 A12))) (let ((.def_384 (or A9 A12))) (let ((.def_385 (not .def_384))) (let ((.def_386 (= .def_385 .def_383))) (let ((.def_387 (or A22 A19))) (let ((.def_388 (and .def_8 A7))) (let ((.def_389 (and .def_388 .def_387))) (let ((.def_390 (not .def_389))) (let ((.def_391 (and .def_390 .def_386))) (let ((.def_392 (not .def_391))) (let ((.def_393 (or .def_392 .def_382))) (let ((.def_394 (not .def_393))) (let ((.def_395 (or .def_394 .def_371))) (let ((.def_396 (not .def_395))) (let ((.def_397 (and .def_396 .def_350))) (let ((.def_398 (not .def_397))) (let ((.def_399 (and .def_398 .def_303))) (let ((.def_400 (not .def_399))) (let ((.def_401 (or .def_400 .def_209))) (let ((.def_402 (not .def_401))) .def_402))))))))))))))))))))))))))))))))))))))))))))))))))))))))))))))))))))))))))))))))))))))))))))))))))))))))))))))))))))))))))))))))))))))))))))))))))))))))))))))))))))))))))))))))))))))))))))))))))))))))))))))))))))))))))))))))))))))))))))))))))))))))))))))))))))))))))))))))))))))))))))))))))))))))))))))))))))))))))))))))))))))))))))))))))))))))))))))))))))))))))))))))))))))))))))))))))))))))))))))))))))
(check-sat)
